min																						
der:	+1.0000000000000000 th0_0	 +1.0000000000000000 th0_1	+1.0000000000000000 th0_2 
																						
subject to																						
onfin1:	     -1.0000000000000000 th0_0	-0.713178294573643 th0_1	-0.821705426356589 th0_2	+1.0000000000000000 th1_0	+0.713178294573643 th1_1	+0.821705426356589 th1_2	 = +0
onfin2:	     -1.0000000000000000 th0_0	-9.538461538461540 th0_1	-6.307692307692310 th0_2	+1.0000000000000000 th2_0	+9.538461538461540 th2_1	+6.307692307692310 th2_2	 = +0
onfin3:	     -1.0000000000000000 th1_0	-0.652892561983471 th1_1	-1.008264462809920 th1_2	+1.0000000000000000 th3_0	+0.652892561983471 th3_1	+1.008264462809920 th3_2	 = +0
onfin4:	     -1.0000000000000000 th1_0	-0.634328358208955 th1_1	-0.850746268656716 th1_2	+1.0000000000000000 th4_0	+0.634328358208955 th4_1	+0.850746268656716 th4_2	 = +0
onfin5:	     -1.0000000000000000 th1_0	-0.848484848484848 th1_1	-0.621212121212121 th1_2	+1.0000000000000000 th5_0	+0.848484848484848 th5_1	+0.621212121212121 th5_2	 = -0.090909090909091
onfin6:	     -1.0000000000000000 th2_0	-9.538461538461540 th2_1	-6.307692307692310 th2_2	+1.0000000000000000 th6_0	+9.538461538461540 th6_1	+6.307692307692310 th6_2	 = -1.84615384615385

nemneg3:	+1 th3_0	+0.652892561983471 th3_1	+1.008264462809920 th3_2	>=0
nemneg4:	+1 th4_0	+0.634328358208955 th4_1	+0.850746268656716 th4_2	>=0
nemneg5:	+1 th5_0	+0.848484848484848 th5_1	+0.621212121212121 th5_2	>=0
nemneg6:	+1 th6_0	+9.538461538461540 th6_1	+6.307692307692310 th6_2	>=0
																						
bounds																						
th0_0	free																					
th0_1	free																					
th0_2	free																					
th1_0	free																					
th1_1	free																					
th1_2	free																					
th2_0	free																					
th2_1	free																					
th2_2	free																					
th3_0	free																					
th3_1	free																					
th3_2	free																					
th4_0	free																					
th4_1	free																					
th4_2	free																					
th5_0	free																					
th5_1	free																					
th5_2	free																					
th6_0	free																					
th6_1	free																					
th6_2	free																					
																						
end																						

